Welcome to IBM(R) ILOG(R) CPLEX(R) Interactive Optimizer 12.8.0.0
  with Simplex, Mixed Integer & Barrier Optimizers
5725-A06 5725-A29 5724-Y48 5724-Y49 5724-Y54 5724-Y55 5655-Y21
Copyright IBM Corp. 1988, 2017.  All Rights Reserved.

Type 'help' for a list of available commands.
Type 'help' followed by a command name for more
information on commands.

CPLEX> read base.lp
Problem 'base.lp' read.
Read time = 0.00 sec. (0.00 ticks)
CPLEX> optimize
Found incumbent of value 24.000000 after 0.00 sec. (0.00 ticks)
Tried aggregator 1 time.
MIP Presolve eliminated 0 rows and 18 columns.
Reduced MIP has 8 rows, 6 columns, and 16 nonzeros.
Reduced MIP has 6 binaries, 0 generals, 0 SOSs, and 0 indicators.
Presolve time = 0.00 sec. (0.03 ticks)
Probing time = 0.00 sec. (0.00 ticks)
Tried aggregator 1 time.
Reduced MIP has 8 rows, 6 columns, and 16 nonzeros.
Reduced MIP has 6 binaries, 0 generals, 0 SOSs, and 0 indicators.
Presolve time = 0.00 sec. (0.01 ticks)
Probing time = 0.00 sec. (0.00 ticks)
Clique table members: 8.
MIP emphasis: balance optimality and feasibility.
MIP search method: dynamic search.
Parallel mode: deterministic, using up to 4 threads.
Root relaxation solution time = 0.00 sec. (0.01 ticks)

        Nodes                                         Cuts/
   Node  Left     Objective  IInf  Best Integer    Best Bound    ItCnt     Gap

*     0+    0                            6.0000        0.0000           100.00%
*     0+    0                            4.0000        0.0000           100.00%
*     0     0      integral     0        2.0000        2.0000        4    0.00%
Elapsed time = 0.00 sec. (0.08 ticks, tree = 0.00 MB, solutions = 3)

Root node processing (before b&c):
  Real time             =    0.00 sec. (0.08 ticks)
Parallel b&c, 4 threads:
  Real time             =    0.00 sec. (0.00 ticks)
  Sync time (average)   =    0.00 sec.
  Wait time (average)   =    0.00 sec.
                          ------------
Total (root+branch&cut) =    0.00 sec. (0.08 ticks)

Solution pool: 4 solutions saved.

MIP - Integer optimal solution:  Objective =  2.0000000000e+00
Solution time =    0.01 sec.  Iterations = 4  Nodes = 0
Deterministic time = 0.08 ticks  (15.91 ticks/sec)

CPLEX> display solution variables * 
Incumbent solution
Variable Name           Solution Value
move_loc_x1_y0_x2_y0                    1.000000
move_loc_x0_y1_x0_y2                    1.000000
All other variables matching '*' are 0.
CPLEX> 
